NAME: ACTUAL_TOURS/amz0610
TYPE: TOUR
COMMENT: RouteID_404ac355-972a-4c3e-b9b7-088b9b9dc8f2
DIMENSION: 122
TOUR_SECTION
78
70
19
29
14
3
44
65
72
37
113
36
13
66
64
85
104
118
88
46
47
119
16
80
30
22
107
98
7
61
27
48
10
51
115
79
28
56
94
95
86
83
111
89
54
58
40
103
41
120
109
81
9
2
71
20
67
31
96
106
82
5
38
60
15
26
52
77
33
53
4
8
92
76
32
50
17
25
112
84
105
42
24
117
18
69
49
90
23
114
73
93
122
68
99
6
100
55
62
57
21
74
121
35
97
116
108
45
87
91
101
34
110
43
63
1
59
75
12
102
39
11
-1
EOF
